sat
(
  (define-fun C5_VM4 () Int
    1)
  (define-fun C2_VM2 () Int
    1)
  (define-fun PriceProv6 () Int
    420)
  (define-fun C1_VM3 () Int
    0)
  (define-fun C5_VM1 () Int
    0)
  (define-fun MemProv2 () Int
    7500)
  (define-fun C4_VM3 () Int
    1)
  (define-fun StorageProv3 () Int
    2000)
  (define-fun StorageProv4 () Int
    2000)
  (define-fun MemProv1 () Int
    7500)
  (define-fun ProcProv3 () Int
    8)
  (define-fun C5_VM6 () Int
    1)
  (define-fun C3_VM6 () Int
    1)
  (define-fun PriceProv5 () Int
    0)
  (define-fun ProcProv5 () Int
    33)
  (define-fun C1_VM2 () Int
    0)
  (define-fun PriceProv3 () Int
    532)
  (define-fun VM2Type () Int
    341)
  (define-fun StorageProv6 () Int
    2000)
  (define-fun C1_VM5 () Int
    0)
  (define-fun VM4Type () Int
    341)
  (define-fun C2_VM6 () Int
    0)
  (define-fun C3_VM5 () Int
    0)
  (define-fun C3_VM2 () Int
    0)
  (define-fun ProcProv2 () Int
    4)
  (define-fun C5_VM5 () Int
    0)
  (define-fun C2_VM1 () Int
    0)
  (define-fun MemProv4 () Int
    7500)
  (define-fun VM3Type () Int
    252)
  (define-fun VM6Type () Int
    278)
  (define-fun C3_VM1 () Int
    0)
  (define-fun C4_VM4 () Int
    0)
  (define-fun C4_VM1 () Int
    0)
  (define-fun C4_VM6 () Int
    0)
  (define-fun ProcProv1 () Int
    4)
  (define-fun C2_VM5 () Int
    0)
  (define-fun PriceProv1 () Int
    210)
  (define-fun StorageProv1 () Int
    2000)
  (define-fun C4_VM5 () Int
    0)
  (define-fun C3_VM4 () Int
    0)
  (define-fun C5_VM2 () Int
    1)
  (define-fun MemProv5 () Int
    122001)
  (define-fun PriceProv4 () Int
    210)
  (define-fun C1_VM4 () Int
    0)
  (define-fun C3_VM3 () Int
    0)
  (define-fun StorageProv2 () Int
    2000)
  (define-fun C4_VM2 () Int
    0)
  (define-fun ProcProv4 () Int
    4)
  (define-fun VM5Type () Int
    0)
  (define-fun PriceProv2 () Int
    210)
  (define-fun StorageProv5 () Int
    6001)
  (define-fun C2_VM3 () Int
    0)
  (define-fun MemProv6 () Int
    15000)
  (define-fun MemProv3 () Int
    30000)
  (define-fun C5_VM3 () Int
    0)
  (define-fun C2_VM4 () Int
    1)
  (define-fun ProcProv6 () Int
    8)
  (define-fun C1_VM6 () Int
    0)
  (define-fun VM1Type () Int
    341)
  (define-fun C1_VM1 () Int
    1)
)
(objectives
 ( 14)
 ((+ 0 PriceProv1 PriceProv2 PriceProv3 PriceProv4 PriceProv5 PriceProv6) 1582)
)
(:added-eqs                   108941
 :arith-eq-adapter            114718
 :arith-bound-propagations-lp 419
 :arith-conflicts             19
 :arith-diseq                 197156
 :arith-fixed-eqs             2127
 :arith-lower                 218083
 :arith-make-feasible         86921
 :arith-max-columns           566
 :arith-max-rows              20
 :arith-upper                 189410
 :binary-propagations         1055725
 :bv-bit2core                 7524
 :bv-dynamic-diseqs           367549
 :bv->core-eq                 1567
 :conflicts                   2586
 :decisions                   322330
 :del-clause                  430277
 :final-checks                34
 :max-memory                  89.24
 :maxsat-cores                2
 :memory                      87.06
 :minimized-lits              1075
 :mk-bool-var                 233847
 :mk-clause                   433212
 :mk-clause-binary            14641
 :num-allocs                  1799884840
 :num-checks                  35
 :pb-conflicts                10
 :pb-predicates               18
 :pb-propagations             621
 :pb-resolves                 10
 :propagations                1215825
 :restarts                    20
 :rlimit-count                15269658
 :solve-eqs-elim-vars         1
 :solve-eqs-steps             10
 :time                        1.91
 :total-time                  1.93)
